Problem:    Fattoria
Rows:       4
Columns:    12
Non-zeros:  36
Status:     OPTIMAL
Objective:  z = 226976.7442 (MAXimum)

   No.   Row name   St   Activity     Lower bound   Upper bound    Marginal
------ ------------ -- ------------- ------------- ------------- -------------
     1 limAcqua     NU        400000                      400000      0.567442 
     2 limTerreno[A]
                    B              0                         200 
     3 limTerreno[B]
                    B        111.628                         400 
     4 z            B         226977                             

   No. Column name  St   Activity     Lower bound   Upper bound    Marginal
------ ------------ -- ------------- ------------- ------------- -------------
     1 x[A,1]       NL             0             0                     -20.093 
     2 x[A,2]       NL             0             0                    -28.7907 
     3 x[A,3]       NL             0             0                    -28.7442 
     4 x[A,4]       NL             0             0                    -43.4419 
     5 x[A,5]       NL             0             0                       < eps
     6 x[A,6]       NL             0             0                    -8.13953 
     7 x[B,1]       NL             0             0                     -20.093 
     8 x[B,2]       NL             0             0                    -28.7907 
     9 x[B,3]       NL             0             0                    -28.7442 
    10 x[B,4]       NL             0             0                    -43.4419 
    11 x[B,5]       B        1860.47             0               
    12 x[B,6]       NL             0             0                    -8.13953 

Karush-Kuhn-Tucker optimality conditions:

KKT.PE: max.abs.err = 0.00e+000 on row 0
        max.rel.err = 0.00e+000 on row 0
        High quality

KKT.PB: max.abs.err = 0.00e+000 on row 0
        max.rel.err = 0.00e+000 on row 0
        High quality

KKT.DE: max.abs.err = 1.42e-014 on column 11
        max.rel.err = 5.80e-017 on column 11
        High quality

KKT.DB: max.abs.err = 0.00e+000 on row 0
        max.rel.err = 0.00e+000 on row 0
        High quality

End of output
